c 161_3_checker.cnf
c
c field = 161
c formula set type = 3_checker
c
p cnf 4 64
314 
316 
318 
-312 
315 
317 
319 
-313 
314 
316 
318 
-322 
315 
317 
319 
-323 
316 
318 
322 
-314 
317 
319 
323 
-315 
316 
318 
322 
-324 
317 
319 
323 
-325 
318 
322 
324 
-316 
319 
323 
325 
-317 
318 
322 
324 
-326 
319 
323 
325 
-327 
322 
324 
326 
-318 
323 
325 
327 
-319 
322 
324 
326 
-328 
323 
325 
327 
-329 
230 
260 
290 
-200 
231 
261 
291 
-201 
230 
260 
290 
-350 
231 
261 
291 
-351 
260 
290 
350 
-230 
261 
291 
351 
-231 
260 
290 
350 
-380 
261 
291 
351 
-381 
290 
350 
380 
-260 
291 
351 
381 
-261 
290 
350 
380 
-410 
291 
351 
381 
-411 
350 
380 
410 
-290 
351 
381 
411 
-291 
350 
380 
410 
-440 
351 
381 
411 
-441 
224 
256 
288 
-192 
225 
257 
289 
-193 
224 
256 
288 
-352 
225 
257 
289 
-353 
256 
288 
352 
-224 
257 
289 
353 
-225 
256 
288 
352 
-384 
257 
289 
353 
-385 
288 
352 
384 
-256 
289 
353 
385 
-257 
288 
352 
384 
-416 
289 
353 
385 
-417 
352 
384 
416 
-288 
353 
385 
417 
-289 
352 
384 
416 
-448 
353 
385 
417 
-449 
236 
264 
292 
-208 
237 
265 
293 
-209 
236 
264 
292 
-348 
237 
265 
293 
-349 
264 
292 
348 
-236 
265 
293 
349 
-237 
264 
292 
348 
-376 
265 
293 
349 
-377 
292 
348 
376 
-264 
293 
349 
377 
-265 
292 
348 
376 
-404 
293 
349 
377 
-405 
348 
376 
404 
-292 
349 
377 
405 
-293 
348 
376 
404 
-432 
349 
377 
405 
-433 
